instances/p1/p1_10_3-3.txt
{
	"num_strings": 10,
	"alphabet": "ACGT",
	"strings": [
		"AAA",
		"ACC",
		"AAC",
		"AAA",
		"AAA",
		"CGA",
		"AAA",
		"AAA",
		"AAC",
		"CAC"
	],
	"str_length":[3,3,3,3,3,3,3,3,3,3]
}